(declare-const a Real)
(declare-const b Real)
(declare-const c Real)
(assert (= (* a b c) 1))
(assert (> a 0))
(assert (> b 0))
(assert (> c 0))
(assert (not (<= (+ (* -39918912 (pow b 4)) (* -30039360 (pow a 4)) (* -84934656 (pow a (pow 3 -1)) (pow b (/ 11 3))) (* -42467328 (pow a (/ 10 3)) (pow b (/ 2 3))) (* 46333248 b (pow a 3)) (* 151027008 a (pow b 3))) 0)))
(check-sat)
(get-model)
(exit)